Solving original (integer) problem with strategy gdp.hull_exact...
--- Job model.gms Start 02/16/26 01:31:38 52.2.0 d8e408be LEX-LEG x86 64bit/Linux
--- Applying:
    /package/gams/52.2/gmsprmun.txt
--- GAMS Parameters defined
    Input /local/scratch/a/sgusev/repos/k_means/data/gams_scip_gdp.hull_exact/no_mode/2026-02-16_01-31-37/original/model.gms
    Output /local/scratch/a/sgusev/repos/k_means/data/gams_scip_gdp.hull_exact/no_mode/2026-02-16_01-31-37/original/output.lst
    ScrDir /local/scratch/a/sgusev/repos/k_means/data/gams_scip_gdp.hull_exact/no_mode/2026-02-16_01-31-37/original/225a/
    SysDir /package/gams/52.2/
    CurDir /local/scratch/a/sgusev/repos/k_means/data/gams_scip_gdp.hull_exact/no_mode/2026-02-16_01-31-37/original/
    LogOption 3
    AppendLog 1
Licensee: David Bernal / SECQUOIA Research Group         G251008+0003Ac-GEN
          Purdue University, Davidson School of Chemical EngineeringDCE4838
          225a/gamslice.dat
          5a82958a-fbca-4a23
          node:66820903 mem:995 cores:48 ipport:60349 v:2                  
          Evaluation license: Not for commercial or production use
          The time-limited license stops working on : Jun 30, 2027
System information: 48 physical cores and 995 Gb physical memory detected
GAMS 52.2.0   Copyright (C) 1987-2025 GAMS Development. All rights reserved
--- Starting compilation
--- model.gms(2456) 2 Mb
--- $echo File /local/scratch/a/sgusev/repos/k_means/data/gams_scip_gdp.hull_exact/no_mode/2026-02-16_01-31-37/original/scip.opt
--- model.gms(3628) 2 Mb
--- Starting execution: elapsed 0:00:00.014
--- model.gms(2466) 3 Mb
--- Generating MINLP model GAMS_MODEL
--- model.gms(2470) 5 Mb
---   745 rows  360 columns  1,797 non-zeroes
---   1,176 nl-code  210 nl-non-zeroes
---   42 discrete-columns
--- Range statistics (absolute non-zero finite values)
--- RHS       [min, max] : [ 1.000E+00, 1.000E+00] - Zero values observed as well
--- Bound     [min, max] : [ 1.000E+00, 8.400E+01] - Zero values observed as well
--- Matrix    [min, max] : [ 1.000E+00, 8.400E+01] - Zero values observed as well
--- model.gms(2470) 3 Mb
--- Executing SCIP (Solvelink=5): elapsed 0:00:00.019

SCIP             52.2.0 d8e408be Dec 8, 2025           LEG x86 64bit/Linux    
SCIP version 9.2.4 (a94f778ac8)
Copyright (c) 2002-2025 Zuse Institute Berlin (ZIB)

External libraries: 
  CPLEX 22.1.2.0       Linear Programming Solver developed by IBM (www.cplex.com)
  CppAD 20180000.0     Algorithmic Differentiation of C++ algorithms developed by B. Bell (github.com/coin-or/CppAD)
  PaPILO 2.4.4         parallel presolve for integer and linear optimization (github.com/scipopt/papilo) (built with TBB) [GitHash: 7c826d50]
  Nauty 2.8.9          Computing Graph Automorphism Groups by Brendan D. McKay (users.cecs.anu.edu.au/~bdm/nauty)
  sassy 1.1            Symmetry preprocessor by Markus Anders (github.com/markusa4/sassy)
  Ipopt 3.14.19        Interior Point Optimizer developed by A. Waechter et.al. (github.com/coin-or/Ipopt)

reading option file /local/scratch/a/sgusev/repos/k_means/data/gams_scip_gdp.hull_exact/no_mode/2026-02-16_01-31-37/original/scip.opt
non-default parameter settings:
limits/time = 300
limits/gap = 1e-06
limits/absgap = 1e-10
lp/threads = 1
misc/printreason = FALSE
numerics/dualfeastol = 1e-06
parallel/maxnthreads = 1
nlpi/ipopt/linear_solver = "ma27"
nlpi/ipopt/linear_system_scaling = "mc19"

original problem has 359 variables (42 bin, 0 int, 317 cont) and 744 constraints

all 1 solutions given by solution candidate storage are infeasible

presolving:
(round 1, fast)       14 del vars, 0 del conss, 0 add conss, 0 chg bounds, 0 chg sides, 0 chg coeffs, 0 upgd conss, 0 impls, 14 clqs
(round 2, fast)       14 del vars, 0 del conss, 0 add conss, 0 chg bounds, 14 chg sides, 0 chg coeffs, 0 upgd conss, 0 impls, 14 clqs
(round 3, exhaustive) 14 del vars, 0 del conss, 0 add conss, 0 chg bounds, 14 chg sides, 0 chg coeffs, 560 upgd conss, 0 impls, 14 clqs
   (0.0s) probing cycle finished: starting next cycle
   (0.0s) symmetry computation started: requiring (bin +, int +, cont +), (fixed: bin -, int -, cont -)
   (0.0s) no symmetry present (symcode time: 0.00)
presolving (4 rounds: 4 fast, 2 medium, 2 exhaustive):
 14 deleted vars, 0 deleted constraints, 0 added constraints, 0 tightened bounds, 0 added holes, 14 changed sides, 0 changed coefficients
 1134 implications, 14 cliques
presolved problem has 345 variables (42 bin, 0 int, 0 impl, 303 cont) and 744 constraints
    546 constraints of type <varbound>
     14 constraints of type <setppc>
    142 constraints of type <linear>
     42 constraints of type <nonlinear>
Presolving Time: 0.02

 time | node  | left  |LP iter|LP it/n|mem/heur|mdpt |vars |cons |rows |cuts |sepa|confs|strbr|  dualbound   | primalbound  |  gap   | compl. 
  0.1s|     1 |     0 |   366 |     - |  9180k |   0 | 681 | 744 |1164 |   0 |  0 |   0 |   0 | 0.000000e+00 |      --      |    Inf | unknown
o 0.1s|     1 |     0 |   541 |     - |feaspump|   0 | 681 | 744 |1164 |   0 |  0 |   0 |   0 | 0.000000e+00 | 1.316887e+01 |    Inf | unknown
  0.1s|     1 |     0 |   693 |     - |    10M |   0 | 681 | 744 |1235 |  71 |  1 |   0 |   0 | 0.000000e+00 | 1.316887e+01 |    Inf | unknown
  0.1s|     1 |     0 |   693 |     - |    10M |   0 | 681 | 744 |1221 |  71 |  1 |   0 |   0 | 0.000000e+00 | 1.316887e+01 |    Inf | unknown
  0.1s|     1 |     0 |   827 |     - |    10M |   0 | 681 | 744 |1296 | 146 |  2 |   0 |   0 | 0.000000e+00 | 1.316887e+01 |    Inf | unknown
  0.1s|     1 |     0 |   937 |     - |    10M |   0 | 681 | 744 |1357 | 207 |  3 |   0 |   0 | 0.000000e+00 | 1.316887e+01 |    Inf | unknown
  0.2s|     1 |     0 |  1026 |     - |    10M |   0 | 681 | 744 |1427 | 277 |  4 |   0 |   0 | 0.000000e+00 | 1.316887e+01 |    Inf | unknown
  0.2s|     1 |     0 |  1132 |     - |    11M |   0 | 681 | 744 |1485 | 335 |  5 |   0 |   0 | 0.000000e+00 | 1.316887e+01 |    Inf | unknown
  0.2s|     1 |     0 |  1229 |     - |    11M |   0 | 681 | 744 |1545 | 395 |  6 |   0 |   0 | 0.000000e+00 | 1.316887e+01 |    Inf | unknown
  0.3s|     1 |     0 |  1326 |     - |    11M |   0 | 681 | 744 |1600 | 450 |  7 |   0 |   0 | 0.000000e+00 | 1.316887e+01 |    Inf | unknown
  0.3s|     1 |     0 |  1415 |     - |    11M |   0 | 681 | 744 |1644 | 494 |  8 |   0 |   0 | 0.000000e+00 | 1.316887e+01 |    Inf | unknown
  0.4s|     1 |     0 |  1529 |     - |    12M |   0 | 681 | 744 |1699 | 549 |  9 |   0 |   0 | 0.000000e+00 | 1.316887e+01 |    Inf | unknown
  0.4s|     1 |     0 |  1612 |     - |    12M |   0 | 681 | 744 |1741 | 591 | 10 |   0 |   0 | 0.000000e+00 | 1.316887e+01 |    Inf | unknown
  0.5s|     1 |     0 |  1692 |     - |    13M |   0 | 681 | 744 |1407 | 639 | 11 |   0 |   0 | 0.000000e+00 | 1.316887e+01 |    Inf | unknown
  0.5s|     1 |     0 |  1762 |     - |    14M |   0 | 681 | 744 |1445 | 677 | 12 |   0 |   0 | 0.000000e+00 | 1.316887e+01 |    Inf | unknown
 time | node  | left  |LP iter|LP it/n|mem/heur|mdpt |vars |cons |rows |cuts |sepa|confs|strbr|  dualbound   | primalbound  |  gap   | compl. 
r 0.8s|     1 |     0 |  4433 |     - |intshift|   0 | 681 | 730 |1445 | 677 | 12 |   0 |   0 | 0.000000e+00 | 1.167002e+01 |    Inf | unknown
d 1.4s|     1 |     0 |  4433 |     - |    mpec|   0 | 681 | 730 |1445 | 677 | 12 |   0 |   0 | 0.000000e+00 | 1.081154e+01 |    Inf | unknown
  1.4s|     1 |     0 |  4433 |     - |    15M |   0 | 681 | 730 |1445 | 677 | 12 |   0 |   0 | 0.000000e+00 | 1.081154e+01 |    Inf | unknown
  1.4s|     1 |     0 |  4507 |     - |    15M |   0 | 681 | 730 |1477 | 709 | 13 |   0 |   0 | 0.000000e+00 | 1.081154e+01 |    Inf | unknown
  1.4s|     1 |     0 |  4542 |     - |    16M |   0 | 681 | 730 |1490 | 722 | 14 |   0 |   0 | 0.000000e+00 | 1.081154e+01 |    Inf | unknown
  1.5s|     1 |     2 |  4542 |     - |    16M |   0 | 681 | 730 |1490 | 722 | 14 |   0 |  20 | 0.000000e+00 | 1.081154e+01 |    Inf | unknown
d 1.9s|    12 |    13 |  7182 | 488.3 |pscostdi|  10 | 681 | 730 |1575 |1940 |  8 |   0 |  94 | 0.000000e+00 | 1.048287e+01 |    Inf | unknown
d 2.2s|    26 |    27 | 10193 | 335.3 |fracdivi|  10 | 681 | 730 |1425 |3391 |  5 |   0 | 157 | 0.000000e+00 | 7.714589e+00 |    Inf | unknown
o 2.5s|    51 |    52 | 14388 | 251.5 |objpscos|  11 | 681 | 730 |1401 |5252 |  7 |   0 | 184 | 0.000000e+00 | 7.080583e+00 |    Inf | unknown
  3.1s|   100 |   101 | 23628 | 220.4 |    21M |  16 | 681 | 730 |1234 |8946 |  2 |   1 | 192 | 0.000000e+00 | 7.080583e+00 |    Inf | unknown
d 3.4s|   116 |   115 | 26223 | 212.3 |nlpdivin|  16 | 681 | 730 |1489 |   0 |  8 |   1 | 192 | 0.000000e+00 | 5.117906e+00 |    Inf | unknown
  4.7s|   200 |   199 | 50488 | 244.6 |    30M |  16 | 681 | 730 |1444 |  17k|  2 |   7 | 194 | 0.000000e+00 | 5.117906e+00 |    Inf | unknown
  6.0s|   300 |   295 | 76540 | 249.9 |    37M |  18 | 681 | 730 |1425 |  27k|  8 |  22 | 194 | 0.000000e+00 | 5.117906e+00 |    Inf | unknown
  7.4s|   400 |   393 |100017 | 246.1 |    41M |  18 | 681 | 730 |1442 |  36k|  5 |  34 | 194 | 0.000000e+00 | 5.117906e+00 |    Inf | unknown
  8.5s|   500 |   483 |122607 | 242.1 |    45M |  19 | 681 | 730 |1407 |  45k|  6 |  49 | 196 | 0.000000e+00 | 5.117906e+00 |    Inf |   9.99%
 time | node  | left  |LP iter|LP it/n|mem/heur|mdpt |vars |cons |rows |cuts |sepa|confs|strbr|  dualbound   | primalbound  |  gap   | compl. 
  9.6s|   600 |   557 |139960 | 230.6 |    49M |  23 | 681 | 730 |1515 |  53k|  2 |  64 | 200 | 0.000000e+00 | 5.117906e+00 |    Inf |  11.16%
 10.6s|   700 |   627 |158705 | 224.5 |    53M |  23 | 681 | 730 |1379 |  62k|  2 |  72 | 206 | 0.000000e+00 | 5.117906e+00 |    Inf |  11.47%
 11.4s|   800 |   673 |173937 | 215.4 |    55M |  23 | 681 | 730 |1431 |  69k|  0 |  80 | 208 | 0.000000e+00 | 5.117906e+00 |    Inf |  12.38%
 12.2s|   900 |   721 |190265 | 209.6 |    58M |  23 | 681 | 730 |1369 |  77k|  2 |  89 | 209 | 9.999075e-02 | 5.117906e+00 |5018.38%|  13.54%
 13.1s|  1000 |   775 |205231 | 203.6 |    60M |  23 | 681 | 730 |1602 |  84k|  6 | 103 | 214 | 9.999075e-02 | 5.117906e+00 |5018.38%|  14.45%
 13.9s|  1100 |   825 |220077 | 198.6 |    63M |  23 | 681 | 730 |1565 |  92k|  7 | 114 | 220 | 1.796228e-01 | 5.117906e+00 |2749.25%|  14.85%
 14.8s|  1200 |   887 |234731 | 194.3 |    67M |  23 | 681 | 730 |1487 |  99k|  0 | 126 | 228 | 3.822303e-01 | 5.117906e+00 |1238.96%|  16.52%
d15.5s|  1290 |   854 |245514 | 189.1 |guideddi|  23 | 681 | 730 |1411 | 105k|  6 | 134 | 239 | 6.165153e-01 | 4.769954e+00 | 673.70%|  17.34%
 15.5s|  1300 |   858 |246229 | 188.2 |    69M |  24 | 681 | 730 |1566 | 106k|  6 | 135 | 239 | 6.165153e-01 | 4.769954e+00 | 673.70%|  17.44%
 16.5s|  1400 |   924 |263654 | 187.2 |    70M |  24 | 681 | 730 |1498 | 114k|  5 | 143 | 250 | 6.868852e-01 | 4.769954e+00 | 594.43%|  17.98%
 17.2s|  1500 |   948 |274883 | 182.2 |    71M |  24 | 681 | 730 |1603 | 120k|  8 | 152 | 255 | 8.508699e-01 | 4.769954e+00 | 460.60%|  19.79%
 18.0s|  1600 |   980 |288967 | 179.6 |    74M |  24 | 681 | 730 |1704 | 127k|  6 | 161 | 265 | 9.202834e-01 | 4.769954e+00 | 418.31%|  20.80%
 18.8s|  1700 |  1034 |302609 | 177.0 |    77M |  24 | 681 | 730 |1473 | 134k|  4 | 170 | 268 | 9.662368e-01 | 4.769954e+00 | 393.66%|  21.91%
 19.4s|  1800 |  1046 |311421 | 172.1 |    78M |  24 | 681 | 730 |1360 | 139k|  8 | 175 | 274 | 9.662368e-01 | 4.769954e+00 | 393.66%|  23.15%
 20.1s|  1900 |  1052 |322270 | 168.8 |    78M |  25 | 681 | 730 |1537 | 145k|  2 | 181 | 278 | 1.015957e+00 | 4.769954e+00 | 369.50%|  25.28%
 time | node  | left  |LP iter|LP it/n|mem/heur|mdpt |vars |cons |rows |cuts |sepa|confs|strbr|  dualbound   | primalbound  |  gap   | compl. 
*20.3s|  1950 |  1048 |327056 | 166.9 |    LP  |  25 | 681 | 730 |1857 | 147k|  8 | 184 | 280 | 1.091369e+00 | 4.751283e+00 | 335.35%|  26.23%
 20.7s|  2000 |  1070 |332230 | 165.3 |    81M |  25 | 681 | 730 |1724 | 150k|  5 | 185 | 280 | 1.106104e+00 | 4.751283e+00 | 329.55%|  26.61%
*20.8s|  2026 |  1071 |334553 | 164.3 |    LP  |  25 | 681 | 730 |1855 | 152k|  9 | 186 | 282 | 1.106104e+00 | 4.741938e+00 | 328.71%|  26.81%
*21.0s|  2058 |  1055 |337904 | 163.4 |    LP  |  25 | 681 | 730 |1872 | 153k|  8 | 191 | 285 | 1.106112e+00 | 4.704018e+00 | 325.28%|  27.40%
*21.1s|  2068 |  1029 |338524 | 162.9 |    LP  |  25 | 681 | 730 |1817 | 154k|  9 | 191 | 285 | 1.106112e+00 | 4.622922e+00 | 317.94%|  27.46%
 21.3s|  2100 |  1031 |340887 | 161.5 |    81M |  25 | 681 | 730 |1616 | 155k|  1 | 192 | 288 | 1.106112e+00 | 4.622922e+00 | 317.94%|  27.68%
 21.9s|  2200 |  1053 |351819 | 159.2 |    82M |  25 | 681 | 730 |1405 | 161k|  2 | 202 | 292 | 1.106171e+00 | 4.622922e+00 | 317.92%|  29.12%
 22.7s|  2300 |  1067 |361861 | 156.6 |    83M |  25 | 681 | 730 |1422 | 166k|  0 | 214 | 306 | 1.255185e+00 | 4.622922e+00 | 268.31%|  30.26%
 23.4s|  2400 |  1095 |372318 | 154.4 |    85M |  25 | 681 | 730 |1486 | 172k|  4 | 220 | 312 | 1.355235e+00 | 4.622922e+00 | 241.12%|  31.58%
 24.2s|  2500 |  1103 |381489 | 151.9 |    86M |  25 | 681 | 730 |1465 | 176k|  0 | 229 | 315 | 1.412911e+00 | 4.622922e+00 | 227.19%|  32.27%
 24.8s|  2600 |  1113 |390283 | 149.5 |    86M |  25 | 681 | 730 |1504 | 181k|  0 | 235 | 318 | 1.436037e+00 | 4.622922e+00 | 221.92%|  33.54%
 25.5s|  2700 |  1145 |401698 | 148.2 |    87M |  25 | 681 | 730 |1597 | 186k|  6 | 245 | 328 | 1.466416e+00 | 4.622922e+00 | 215.25%|  33.91%
 26.1s|  2800 |  1151 |410607 | 146.1 |    89M |  25 | 681 | 730 |1565 | 191k|  8 | 252 | 333 | 1.479115e+00 | 4.622922e+00 | 212.55%|  34.91%
 26.7s|  2900 |  1153 |420119 | 144.3 |    90M |  25 | 681 | 730 |1546 | 196k|  0 | 261 | 339 | 1.479141e+00 | 4.622922e+00 | 212.54%|  35.53%
 27.3s|  3000 |  1151 |428084 | 142.1 |    91M |  25 | 681 | 730 |1550 | 200k|  5 | 268 | 344 | 1.497839e+00 | 4.622922e+00 | 208.64%|  36.43%
 time | node  | left  |LP iter|LP it/n|mem/heur|mdpt |vars |cons |rows |cuts |sepa|confs|strbr|  dualbound   | primalbound  |  gap   | compl. 
 28.0s|  3100 |  1167 |438884 | 141.0 |    93M |  25 | 681 | 730 |1579 | 205k|  7 | 278 | 348 | 1.562691e+00 | 4.622922e+00 | 195.83%|  37.38%
 28.5s|  3200 |  1167 |447035 | 139.2 |    95M |  25 | 681 | 730 |1427 | 209k|  0 | 285 | 351 | 1.562691e+00 | 4.622922e+00 | 195.83%|  38.16%
 29.1s|  3300 |  1159 |457387 | 138.1 |    95M |  25 | 681 | 730 |1501 | 214k|  2 | 290 | 358 | 1.596997e+00 | 4.622922e+00 | 189.48%|  39.17%
 29.6s|  3400 |  1167 |466003 | 136.6 |    96M |  25 | 681 | 730 |1419 | 219k|  0 | 293 | 360 | 1.633521e+00 | 4.622922e+00 | 183.00%|  39.88%
 30.3s|  3500 |  1189 |477554 | 136.0 |    96M |  25 | 681 | 730 |1615 | 225k|  1 | 301 | 368 | 1.664775e+00 | 4.622922e+00 | 177.69%|  40.77%
 31.0s|  3600 |  1209 |489760 | 135.6 |    97M |  25 | 681 | 730 |1615 | 230k|  5 | 309 | 370 | 1.703633e+00 | 4.622922e+00 | 171.36%|  41.61%
 31.6s|  3700 |  1213 |499411 | 134.5 |    98M |  25 | 681 | 730 |1554 | 235k|  1 | 317 | 374 | 1.716851e+00 | 4.622922e+00 | 169.27%|  42.27%
 32.1s|  3800 |  1219 |507537 | 133.1 |    99M |  25 | 681 | 730 |1527 | 239k|  2 | 325 | 378 | 1.758956e+00 | 4.622922e+00 | 162.82%|  42.97%
 32.7s|  3900 |  1227 |515799 | 131.8 |    99M |  25 | 681 | 730 |1645 | 243k|  5 | 335 | 379 | 1.758956e+00 | 4.622922e+00 | 162.82%|  43.37%
 33.2s|  4000 |  1243 |524939 | 130.8 |   101M |  25 | 681 | 730 |1488 | 248k|  0 | 343 | 381 | 1.758964e+00 | 4.622922e+00 | 162.82%|  43.65%
 33.9s|  4100 |  1267 |536494 | 130.4 |   104M |  25 | 681 | 730 |1504 | 254k|  0 | 348 | 384 | 1.783917e+00 | 4.622922e+00 | 159.14%|  44.10%
 34.4s|  4200 |  1259 |543107 | 128.9 |   104M |  25 | 681 | 730 |1456 | 257k|  0 | 351 | 390 | 1.805115e+00 | 4.622922e+00 | 156.10%|  44.94%
 35.0s|  4300 |  1273 |552818 | 128.2 |   106M |  25 | 681 | 730 |1683 | 262k|  4 | 363 | 398 | 1.828601e+00 | 4.622922e+00 | 152.81%|  45.58%
 35.5s|  4400 |  1267 |560616 | 127.0 |   107M |  25 | 681 | 730 |1510 | 266k|  0 | 367 | 400 | 1.828601e+00 | 4.622922e+00 | 152.81%|  46.55%
 36.0s|  4500 |  1255 |568095 | 125.9 |   107M |  25 | 681 | 730 |1565 | 270k|  0 | 373 | 401 | 1.900924e+00 | 4.622922e+00 | 143.19%|  47.66%
 time | node  | left  |LP iter|LP it/n|mem/heur|mdpt |vars |cons |rows |cuts |sepa|confs|strbr|  dualbound   | primalbound  |  gap   | compl. 
 36.5s|  4600 |  1253 |576745 | 125.0 |   108M |  25 | 681 | 730 |1576 | 274k|  1 | 382 | 407 | 1.950882e+00 | 4.622922e+00 | 136.97%|  48.09%
 37.1s|  4700 |  1273 |586869 | 124.5 |   110M |  25 | 681 | 730 |1515 | 279k|  2 | 391 | 415 | 1.970004e+00 | 4.622922e+00 | 134.67%|  48.67%
 37.6s|  4800 |  1287 |594745 | 123.6 |   110M |  25 | 681 | 730 |1578 | 283k|  6 | 396 | 418 | 1.981993e+00 | 4.622922e+00 | 133.25%|  48.76%
 38.2s|  4900 |  1291 |603018 | 122.7 |   110M |  25 | 681 | 730 |1419 | 287k|  0 | 404 | 423 | 2.044896e+00 | 4.622922e+00 | 126.07%|  49.11%
 38.7s|  5000 |  1287 |611815 | 122.0 |   112M |  25 | 681 | 730 |1612 | 291k|  5 | 415 | 429 | 2.050143e+00 | 4.622922e+00 | 125.49%|  50.03%
 39.2s|  5100 |  1273 |618330 | 120.9 |   112M |  25 | 681 | 730 |1500 | 295k|  0 | 422 | 430 | 2.072205e+00 | 4.622922e+00 | 123.09%|  50.70%
 39.7s|  5200 |  1277 |626406 | 120.1 |   114M |  25 | 681 | 730 |1497 | 299k|  1 | 427 | 438 | 2.096790e+00 | 4.622922e+00 | 120.48%|  51.22%
 40.2s|  5300 |  1265 |634741 | 119.4 |   115M |  25 | 681 | 730 |1498 | 303k|  1 | 433 | 442 | 2.124723e+00 | 4.622922e+00 | 117.58%|  52.22%
 40.7s|  5400 |  1259 |641872 | 118.6 |   115M |  25 | 681 | 730 |1520 | 307k|  7 | 440 | 447 | 2.152648e+00 | 4.622922e+00 | 114.76%|  52.95%
 41.2s|  5500 |  1247 |649155 | 117.7 |   118M |  25 | 681 | 730 |1341 | 310k|  0 | 449 | 450 | 2.194747e+00 | 4.622922e+00 | 110.64%|  53.64%
 41.8s|  5600 |  1245 |657564 | 117.1 |   118M |  25 | 681 | 730 |1493 | 315k|  0 | 459 | 458 | 2.215823e+00 | 4.622922e+00 | 108.63%|  54.46%
 42.3s|  5700 |  1235 |664577 | 116.3 |   119M |  25 | 681 | 730 |1590 | 318k|  2 | 471 | 463 | 2.247547e+00 | 4.622922e+00 | 105.69%|  55.31%
 42.8s|  5800 |  1209 |672303 | 115.6 |   119M |  25 | 681 | 730 |1539 | 321k|  1 | 481 | 465 | 2.366804e+00 | 4.622922e+00 |  95.32%|  56.41%
 43.3s|  5900 |  1203 |680458 | 115.0 |   119M |  25 | 681 | 730 |1869 | 325k|  0 | 491 | 473 | 2.370930e+00 | 4.622922e+00 |  94.98%|  56.85%
 43.7s|  6000 |  1187 |686782 | 114.2 |   119M |  25 | 681 | 730 |1535 | 328k|  0 | 492 | 479 | 2.392730e+00 | 4.622922e+00 |  93.21%|  57.56%
 time | node  | left  |LP iter|LP it/n|mem/heur|mdpt |vars |cons |rows |cuts |sepa|confs|strbr|  dualbound   | primalbound  |  gap   | compl. 
 44.3s|  6100 |  1197 |696891 | 114.0 |   120M |  25 | 681 | 730 |1416 | 333k|  2 | 498 | 480 | 2.432458e+00 | 4.622922e+00 |  90.05%|  58.06%
 44.7s|  6200 |  1177 |703020 | 113.1 |   120M |  25 | 681 | 730 |2105 | 336k|  6 | 503 | 485 | 2.449370e+00 | 4.622922e+00 |  88.74%|  58.96%
 45.2s|  6300 |  1163 |709158 | 112.3 |   120M |  25 | 681 | 730 |1435 | 339k|  2 | 508 | 487 | 2.461030e+00 | 4.622922e+00 |  87.84%|  59.77%
 45.8s|  6400 |  1161 |718576 | 112.0 |   120M |  25 | 681 | 730 |1489 | 343k|  1 | 513 | 494 | 2.510333e+00 | 4.622922e+00 |  84.16%|  60.62%
 46.3s|  6500 |  1153 |726999 | 111.6 |   121M |  25 | 681 | 730 |1465 | 347k|  0 | 518 | 503 | 2.567409e+00 | 4.622922e+00 |  80.06%|  61.44%
 46.9s|  6600 |  1155 |736540 | 111.3 |   123M |  25 | 681 | 730 |1474 | 352k|  2 | 534 | 511 | 2.578219e+00 | 4.622922e+00 |  79.31%|  62.54%
 47.4s|  6700 |  1135 |744308 | 110.8 |   123M |  25 | 681 | 730 |1522 | 355k|  0 | 542 | 517 | 2.614064e+00 | 4.622922e+00 |  76.85%|  63.42%
 47.8s|  6800 |  1117 |750104 | 110.1 |   124M |  25 | 681 | 730 |1426 | 358k|  0 | 546 | 521 | 2.646152e+00 | 4.622922e+00 |  74.70%|  63.87%
 48.4s|  6900 |  1101 |758377 | 109.7 |   124M |  25 | 681 | 730 |1543 | 362k|  2 | 549 | 524 | 2.653707e+00 | 4.622922e+00 |  74.21%|  64.91%
 48.8s|  7000 |  1081 |763933 | 108.9 |   124M |  25 | 681 | 730 |1484 | 365k|  0 | 554 | 527 | 2.664392e+00 | 4.622922e+00 |  73.51%|  65.45%
 49.3s|  7100 |  1057 |771303 | 108.4 |   125M |  25 | 681 | 730 |1593 | 368k|  2 | 559 | 536 | 2.682395e+00 | 4.622922e+00 |  72.34%|  66.24%
 49.7s|  7200 |  1025 |777053 | 107.7 |   126M |  25 | 681 | 730 |1454 | 370k|  1 | 565 | 540 | 2.700682e+00 | 4.622922e+00 |  71.18%|  66.94%
 50.2s|  7300 |  1005 |784617 | 107.2 |   127M |  25 | 681 | 730 |1425 | 373k|  0 | 571 | 545 | 2.749208e+00 | 4.622922e+00 |  68.15%|  67.53%
 50.6s|  7400 |   985 |790644 | 106.6 |   127M |  25 | 681 | 730 |1493 | 376k|  0 | 576 | 549 | 2.762806e+00 | 4.622922e+00 |  67.33%|  68.14%
 51.2s|  7500 |   963 |798179 | 106.2 |   128M |  25 | 681 | 730 |1521 | 380k|  0 | 585 | 559 | 2.779167e+00 | 4.622922e+00 |  66.34%|  69.26%
 time | node  | left  |LP iter|LP it/n|mem/heur|mdpt |vars |cons |rows |cuts |sepa|confs|strbr|  dualbound   | primalbound  |  gap   | compl. 
 51.6s|  7600 |   943 |804739 | 105.7 |   128M |  25 | 681 | 730 |1502 | 383k|  0 | 593 | 562 | 2.788462e+00 | 4.622922e+00 |  65.79%|  70.15%
 52.1s|  7700 |   915 |811860 | 105.2 |   129M |  25 | 681 | 730 |1475 | 386k|  8 | 600 | 566 | 2.818651e+00 | 4.622922e+00 |  64.01%|  71.02%
 52.6s|  7800 |   887 |817812 | 104.6 |   131M |  25 | 681 | 730 |1475 | 388k|  2 | 606 | 569 | 2.862382e+00 | 4.622922e+00 |  61.51%|  71.76%
 53.0s|  7900 |   867 |824121 | 104.1 |   131M |  25 | 681 | 730 |1518 | 391k|  0 | 613 | 576 | 2.876515e+00 | 4.622922e+00 |  60.71%|  72.42%
 53.5s|  8000 |   843 |831077 | 103.7 |   132M |  25 | 681 | 730 |1511 | 394k|  0 | 625 | 583 | 2.900966e+00 | 4.622922e+00 |  59.36%|  73.12%
 53.9s|  8100 |   813 |837205 | 103.1 |   132M |  25 | 681 | 730 |1372 | 397k|  2 | 633 | 589 | 2.909988e+00 | 4.622922e+00 |  58.86%|  74.17%
 54.4s|  8200 |   785 |844252 | 102.7 |   133M |  25 | 681 | 730 |1860 | 400k|  2 | 639 | 595 | 2.931522e+00 | 4.622922e+00 |  57.70%|  75.03%
 54.8s|  8300 |   749 |850731 | 102.3 |   134M |  25 | 681 | 730 |1505 | 402k|  0 | 644 | 599 | 2.972416e+00 | 4.622922e+00 |  55.53%|  76.37%
 55.3s|  8400 |   737 |858278 | 102.0 |   134M |  25 | 681 | 730 |1523 | 406k|  0 | 649 | 607 | 2.983313e+00 | 4.622922e+00 |  54.96%|  76.80%
 55.8s|  8500 |   715 |865850 | 101.7 |   135M |  25 | 681 | 730 |1562 | 409k|  7 | 651 | 612 | 3.069402e+00 | 4.622922e+00 |  50.61%|  77.56%
 56.3s|  8600 |   693 |873360 | 101.4 |   136M |  25 | 681 | 730 |1503 | 412k|  1 | 657 | 621 | 3.100385e+00 | 4.622922e+00 |  49.11%|  78.38%
 56.8s|  8700 |   675 |880765 | 101.0 |   137M |  25 | 681 | 730 |1467 | 416k|  1 | 667 | 623 | 3.112203e+00 | 4.622922e+00 |  48.54%|  79.18%
 57.3s|  8800 |   659 |889999 | 100.9 |   138M |  25 | 681 | 730 |1458 | 419k|  0 | 671 | 626 | 3.135294e+00 | 4.622922e+00 |  47.45%|  79.90%
 57.8s|  8900 |   637 |898634 | 100.8 |   140M |  25 | 681 | 730 |1561 | 423k|  0 | 676 | 634 | 3.155936e+00 | 4.622922e+00 |  46.48%|  80.65%
 58.3s|  9000 |   609 |905811 | 100.5 |   140M |  25 | 681 | 730 |1471 | 426k|  2 | 686 | 639 | 3.217302e+00 | 4.622922e+00 |  43.69%|  81.48%
 time | node  | left  |LP iter|LP it/n|mem/heur|mdpt |vars |cons |rows |cuts |sepa|confs|strbr|  dualbound   | primalbound  |  gap   | compl. 
 58.7s|  9100 |   569 |910848 |  99.9 |   140M |  25 | 681 | 730 |2111 | 428k|  0 | 695 | 644 | 3.273510e+00 | 4.622922e+00 |  41.22%|  82.64%
 59.1s|  9200 |   529 |917046 |  99.5 |   141M |  25 | 681 | 730 |1515 | 430k|  2 | 700 | 647 | 3.321180e+00 | 4.622922e+00 |  39.20%|  83.49%
 59.6s|  9300 |   505 |924457 |  99.2 |   141M |  25 | 681 | 730 |1505 | 433k|  2 | 704 | 655 | 3.325092e+00 | 4.622922e+00 |  39.03%|  84.19%
 60.0s|  9400 |   465 |930277 |  98.8 |   143M |  25 | 681 | 730 |1515 | 435k|  2 | 711 | 657 | 3.349220e+00 | 4.622922e+00 |  38.03%|  85.06%
 60.5s|  9500 |   437 |936071 |  98.4 |   143M |  25 | 681 | 730 |1407 | 437k|  0 | 718 | 662 | 3.360754e+00 | 4.622922e+00 |  37.56%|  85.58%
 60.9s|  9600 |   413 |941928 |  97.9 |   143M |  25 | 681 | 730 |1463 | 440k|  0 | 722 | 663 | 3.477648e+00 | 4.622922e+00 |  32.93%|  86.28%
 61.3s|  9700 |   369 |947153 |  97.5 |   144M |  25 | 681 | 730 |2359 | 442k|  3 | 727 | 664 | 3.492193e+00 | 4.622922e+00 |  32.38%|  87.48%
 61.7s|  9800 |   327 |952554 |  97.0 |   145M |  25 | 681 | 730 |1390 | 444k|  0 | 735 | 668 | 3.557062e+00 | 4.622922e+00 |  29.96%|  88.66%
 62.1s|  9900 |   283 |958586 |  96.7 |   146M |  25 | 681 | 730 |1371 | 446k|  3 | 745 | 674 | 3.563209e+00 | 4.622922e+00 |  29.74%|  89.95%
 62.6s| 10000 |   261 |965831 |  96.4 |   146M |  25 | 681 | 730 |1496 | 449k|  2 | 760 | 686 | 3.648556e+00 | 4.622922e+00 |  26.71%|  90.97%
 63.0s| 10100 |   213 |971307 |  96.0 |   147M |  25 | 681 | 730 |1479 | 451k|  0 | 769 | 691 | 3.667522e+00 | 4.622922e+00 |  26.05%|  92.31%
 63.4s| 10200 |   185 |977938 |  95.7 |   149M |  25 | 681 | 730 |1663 | 453k|  2 | 774 | 694 | 3.722740e+00 | 4.622922e+00 |  24.18%|  93.31%
 63.8s| 10300 |   141 |983748 |  95.3 |   151M |  25 | 681 | 730 |1626 | 455k|  1 | 785 | 701 | 3.812182e+00 | 4.622922e+00 |  21.27%|  94.58%
 64.3s| 10400 |   109 |990053 |  95.0 |   153M |  25 | 681 | 730 |1901 | 458k|  2 | 788 | 706 | 3.870489e+00 | 4.622922e+00 |  19.44%|  95.51%
 64.7s| 10500 |    53 |995512 |  94.6 |   154M |  25 | 681 | 730 |1390 | 460k|  0 | 794 | 709 | 4.022297e+00 | 4.622922e+00 |  14.93%|  97.81%

SCIP Status        : problem is solved [optimal solution found]
Solving Time (sec) : 65.06
Solving Nodes      : 10599
Primal Bound       : +4.62292178250824e+00 (15 solutions)
Dual Bound         : +4.62292178250824e+00
Gap                : 0.00 %


--- Reading solution for model GAMS_MODEL
***
*** Solver did not provide marginals for model GAMS_MODEL
***
--- Executing after solve: elapsed 0:01:05.141
--- model.gms(2473) 3 Mb
--- model.gms(3628) 5 Mb
--- Putfile results /local/scratch/a/sgusev/repos/k_means/data/gams_scip_gdp.hull_exact/no_mode/2026-02-16_01-31-37/original/results.dat
--- Putfile statresults /local/scratch/a/sgusev/repos/k_means/data/gams_scip_gdp.hull_exact/no_mode/2026-02-16_01-31-37/original/resultsstat.dat
*** Status: Normal completion
--- Job model.gms Stop 02/16/26 01:32:43 elapsed 0:01:05.143
Original problem solved. Time taken: 65.74086308479309 seconds
Original objective value: 4.62292178250824
